n_res = 5;
rcap = [29, 25, 118, 93, 121];
rtype = [1, 1, 2, 2, 2];
n_tasks = 16;
modes = [ {1, 2, 3}, {4, 5, 6}, {7, 8, 9}, {10, 11, 12}, {13, 14, 15}, {16, 17, 18}, {19, 20, 21}, {22, 23, 24}, {25, 26, 27}, {28, 29, 30}, {31, 32, 33}, {34, 35, 36}, {37, 38, 39}, {40, 41, 42}, {43, 44, 45}, {46, 47, 48} ];
succ = [ {4, 5, 7}, {5, 6, 16}, {12, 15, 16}, {9, 11, 13}, {15}, {8, 9, 12}, {8, 10}, {11, 13}, {14}, {11, 14, 16}, {15}, {13}, {14}, {}, {}, {} ];
n_opt = 48;
dur = [4, 6, 9, 2, 3, 10, 1, 10, 10, 2, 6, 9, 6, 7, 8, 2, 8, 9, 2, 7, 9, 2, 6, 9, 2, 2, 9, 3, 4, 7, 3, 3, 3, 3, 5, 10, 3, 6, 6, 4, 7, 9, 2, 3, 6, 4, 5, 7];
rreq = [|  0,  5,  0,  6,  0,  0,  0,  0,  8,  9,  7,  0,  0,  0,  0,  0,  0,  6,  6,  0,  3,  0,  0,  0,  8, 10,  0,  9,  9,  0,  4,  9,  5,  0,  3,  0,  1,  0,  0,  0,  5,  1,  0,  0,  0,  6,  0,  4
        |  3,  0,  2,  0, 10,  8,  4,  3,  0,  0,  0,  5,  7,  5,  3,  8,  8,  0,  0,  5,  0,  7,  6,  3,  0,  0,  6,  0,  0,  9,  0,  0,  0,  4,  0,  3,  0,  5,  5,  1,  0,  0,  6,  5,  4,  0,  5,  0
        |  5,  5,  5,  6,  6,  6,  8,  4,  7,  8,  4,  3,  8,  5,  4,  8,  6,  5,  8,  6,  2, 10,  8,  5,  6,  9,  5,  6,  6,  5,  6,  7,  8,  8,  7,  4,  9,  9,  7,  8,  7,  7,  6,  6,  3,  3,  2,  1
        |  7,  6,  3,  6,  6,  4,  7,  7,  5,  3,  2,  2, 10, 10,  9,  3,  3,  2,  5,  3,  3,  7,  5,  3,  4,  4,  3,  8,  6,  5,  7,  7,  6,  4,  3,  3,  7,  6,  4,  3,  3,  2,  5,  5,  5,  7,  7,  6
        |  7,  6,  4,  6,  6,  1,  7,  6,  6,  9,  8,  5,  8,  6,  5,  9,  6,  2, 10,  6,  4,  6,  6,  5,  7,  5,  2,  6,  6,  4,  9,  5,  5,  8,  7,  7, 10,  8,  9,  3,  3,  3,  9,  7,  6,  7,  6,  3 |];
